roadstress 1300 2325 1367 2476
roadstress 1108 2000 1179 2123
roadstress 1320 2698 1436 2792
roadstress 1231 2698 1320 2868
roadstress 1437 2612 1510 2664
roadstress 1312 2620 1377 2704
roadstress 1322 2793 1434 2895
roadstress 1430 2790 1543 2889
roadstress 1408 2657 1446 2755
roadstress 1555 1696 1669 1803
roadstress 1458 1764 1562 1885
roadstress 1345 1839 1417 1981
roadstress 1184 2274 1386 2395
roadstress 1351 2187 1395 2283
roadstress 1384 2273 1485 2347
roadstress 1709 1551 1846 1659
roadstress 1856 1408 1999 1513
roadstress 1476 1520 2000 1971
roadstress 81 2938 132 3000
roadstress 178 2874 222 2952
roadstress 204 2380 342 2678
roadstress 281 2786 383 2916
roadstress 2 2785 286 2985
roadstress 495 2212 618 2314
roadstress 691 1998 1366 2440
roadstress 567 2212 750 2662
roadstress 907 2130 989 2256
roadstress 406 2711 440 2802
roadstress 529 2637 588 2710
roadstress 473 2514 538 2625
roadstress 121 2712 221 2785
roadstress 211 2685 273 2760
roadstress 56 2794 101 2916
roadstress 0 2707 56 2725
roadstress 33 2661 148 2891
roadstress 958 2409 1092 2474
roadstress 716 2433 909 2503
roadstress 864 2334 1040 2561
roadstress 1019 2563 1045 2634
roadstress 1041 2501 1160 2578
roadstress 1153 2459 1215 2651
roadstress 1185 2395 1233 2458
roadstress 998 2363 1295 2539
roadstress 1028 2272 1097 2375
roadstress 1169 2151 1331 2295
roadstress 1497 2820 1574 2998
roadstress 1567 2714 1709 2810
roadstress 1691 2594 1840 2755
roadstress 1533 2934 1592 2998
roadstress 1575 2663 1618 2743
roadstress 1483 2430 1728 2692
roadstress 1169 2670 1293 2714
roadstress 1163 2541 1294 2579
roadstress 1264 2575 1313 2699
roadstress 1298 2544 1436 2658
roadstress 1285 2586 1343 2624
roadstress 1166 2734 1255 2756
roadstress 1240 2694 1293 2716
roadstress 1293 2445 1473 2569
roadstress 1450 2385 1514 2530
roadstress 1521 2340 1712 2409
roadstress 1479 2251 1655 2456
roadstress 1823 2368 2060 2573
roadstress 1697 2831 1875 2927
roadstress 1634 2673 1774 2863
roadstress 2076 2879 2149 3000
roadstress 1838 2922 2094 2999
roadstress 1852 2787 1933 2960
roadstress 1825 2971 1867 2999
roadstress 1610 2477 1715 2653
roadstress 1680 2436 1785 2457
roadstress 1628 2381 1700 2505
roadstress 2167 2871 2208 3000
roadstress 2231 2936 2313 3000
roadstress 2272 2939 2375 2983
roadstress 2359 2886 2404 2956
roadstress 2236 2731 2390 2896
roadstress 1948 2493 2084 2691
roadstress 1901 2572 2002 2654
roadstress 1782 2455 1971 2737
roadstress 2206 2933 2246 2977
roadstress 1657 2878 1779 2966
roadstress 1703 2949 1736 2999
roadstress 1965 2738 2028 2857
roadstress 1963 2811 2204 2915
roadstress 2108 2704 2287 2848
roadstress 1972 2692 2119 2750
roadstress 1472 1971 1575 2193
roadstress 1565 2116 1589 2258
roadstress 1670 2251 1807 2400
roadstress 1781 2298 1933 2453
roadstress 1936 2300 2006 2416
roadstress 2071 2373 2228 2635
roadstress 2171 2626 2360 2690
roadstress 2014 2252 2133 2379
roadstress 1946 2099 2018 2249
roadstress 1859 2084 1918 2295
roadstress 1762 2055 1888 2083
roadstress 1859 1782 1953 2105
roadstress 1251 2099 1356 2213
roadstress 1302 1920 1400 2051
roadstress 1405 1940 1470 1969
roadstress 1384 2082 1412 2215
roadstress 1622 1856 1724 2082
roadstress 1530 2080 1669 2113
roadstress 1657 1828 1884 1952
roadstress 1691 1847 1725 1861
roadstress 1735 1753 1783 1809
roadstress 2041 2260 2110 2275
roadstress 1662 2089 1741 2151
roadstress 2085 2605 2151 2663
roadstress 1736 2685 1884 2770
roadstress 1720 2551 1807 2594
roadstress 2085 2339 2253 2384
roadstress 2009 2430 2123 2485
roadstress 2055 2481 2064 2511
roadstress 2123 1895 2140 1975
roadstress 2068 1888 2222 1900
roadstress 1899 1840 2040 1959
roadstress 2030 1895 2068 2035
roadstress 2034 1793 2074 1884
roadstress 1850 1662 1891 1795
roadstress 1908 1676 1999 1748
roadstress 2200 1515 2321 1606
roadstress 2071 1527 2248 1610
roadstress 2125 1166 2411 1370
roadstress 1986 1303 2072 1516
roadstress 1999 1408 2188 1536
roadstress 2158 1453 2235 1495
roadstress 2040 1269 2304 1509
roadstress 2128 1313 2188 1350
roadstress 2295 1278 2492 1531
roadstress 2313 1117 2509 1264
roadstress 2231 1139 2341 1248
roadstress 2136 934 2328 1115
roadstress 2398 819 2623 1023
roadstress 2443 973 2472 1028
roadstress 2214 875 2394 1010
roadstress 2375 604 2639 835
roadstress 2683 829 2780 914
roadstress 2588 645 2726 759
roadstress 2743 728 2867 853
roadstress 2784 609 2916 745
roadstress 2875 522 3011 745
roadstress 2884 243 3131 522
roadstress 2501 434 2724 642
roadstress 2654 232 2976 416
roadstress 2934 457 3008 479
roadstress 2985 431 3130 512
roadstress 2639 288 2767 441
roadstress 2767 25 3040 331
roadstress 3078 206 3117 238
roadstress 2982 144 3083 167
roadstress 3167 166 3293 229
roadstress 3116 142 3181 199
roadstress 3188 70 3274 158
roadstress 1212 2647 1220 2680
roadstress 1878 2660 1895 2716
roadstress 1300 2325 1367 2476
roadstress 1108 2002 1179 2125
roadstress 1320 2698 1436 2792
roadstress 1231 2698 1320 2868
roadstress 1437 2612 1510 2664
roadstress 1312 2620 1377 2704
roadstress 1322 2793 1434 2895
roadstress 1430 2790 1543 2889
roadstress 1408 2657 1446 2755
roadstress 1555 1696 1669 1803
roadstress 1458 1764 1562 1885
roadstress 1345 1839 1417 1981
roadstress 1184 2274 1386 2395
roadstress 1351 2187 1395 2283
roadstress 1384 2273 1485 2347
roadstress 1709 1551 1846 1659
roadstress 1856 1408 1999 1513
roadstress 1476 1520 2000 1971
roadstress 81 2938 132 3000
roadstress 178 2874 222 2952
roadstress 204 2380 342 2678
roadstress 281 2786 383 2916
roadstress 2 2785 286 2985
roadstress 495 2212 618 2314
roadstress 691 1998 1366 2440
roadstress 567 2212 750 2662
roadstress 907 2130 989 2256
roadstress 406 2711 440 2802
roadstress 529 2637 588 2710
roadstress 473 2514 538 2625
roadstress 121 2712 221 2785
roadstress 211 2685 273 2760
roadstress 56 2794 101 2916
roadstress 0 2707 56 2725
roadstress 33 2661 148 2891
roadstress 958 2409 1092 2474
roadstress 716 2433 909 2503
roadstress 864 2334 1040 2561
roadstress 1019 2563 1045 2634
roadstress 1041 2501 1160 2578
roadstress 1153 2459 1215 2651
roadstress 1185 2395 1233 2458
roadstress 998 2363 1295 2539
roadstress 1028 2272 1097 2375
roadstress 1169 2151 1331 2295
roadstress 1497 2820 1574 2998
roadstress 1567 2714 1709 2810
roadstress 1691 2594 1840 2755
roadstress 1533 2934 1592 2998
roadstress 1575 2663 1618 2743
roadstress 1483 2430 1728 2692
roadstress 1169 2670 1293 2714
roadstress 1163 2541 1294 2579
roadstress 1264 2575 1313 2699
roadstress 1298 2544 1436 2658
roadstress 1285 2586 1343 2624
roadstress 1166 2734 1255 2756
roadstress 1240 2694 1293 2716
roadstress 1293 2445 1473 2569
roadstress 1450 2385 1514 2530
roadstress 1521 2340 1712 2409
roadstress 1479 2251 1655 2456
roadstress 1823 2368 2060 2573
roadstress 1697 2831 1875 2927
roadstress 1634 2673 1774 2863
roadstress 2076 2879 2149 3000
roadstress 1838 2922 2094 2999
roadstress 1852 2787 1933 2960
roadstress 1825 2971 1867 2999
roadstress 1610 2477 1715 2653
roadstress 1680 2436 1785 2457
roadstress 1628 2381 1700 2505
roadstress 2167 2871 2208 3000
roadstress 2231 2936 2313 3000
roadstress 2272 2939 2375 2983
roadstress 2359 2886 2404 2956
roadstress 2236 2731 2390 2896
roadstress 1948 2493 2084 2691
roadstress 1901 2572 2002 2654
roadstress 1782 2455 1971 2737
roadstress 2206 2933 2246 2977
roadstress 1657 2878 1779 2966
roadstress 1703 2949 1736 2999
roadstress 1965 2738 2028 2857
roadstress 1963 2811 2204 2915
roadstress 2108 2704 2287 2848
roadstress 1972 2692 2119 2750
roadstress 1472 1971 1575 2193
roadstress 1565 2116 1589 2258
roadstress 1670 2251 1807 2400
roadstress 1781 2298 1933 2453
roadstress 1936 2300 2006 2416
roadstress 2071 2373 2228 2635
roadstress 2171 2626 2360 2690
roadstress 2014 2252 2133 2379
roadstress 1946 2099 2018 2249
roadstress 1859 2084 1918 2295
roadstress 1762 2055 1888 2083
roadstress 1859 1782 1953 2105
roadstress 1251 2099 1356 2213
roadstress 1302 1920 1400 2051
roadstress 1405 1940 1470 1969
roadstress 1384 2082 1412 2215
roadstress 1622 1856 1724 2082
roadstress 1530 2080 1669 2113
roadstress 1657 1828 1884 1952
roadstress 1691 1847 1725 1861
roadstress 1735 1753 1783 1809
roadstress 2041 2260 2110 2275
roadstress 1662 2089 1741 2151
roadstress 2085 2605 2151 2663
roadstress 1736 2685 1884 2770
roadstress 1720 2551 1807 2594
roadstress 2085 2339 2253 2384
roadstress 2009 2430 2123 2485
roadstress 2055 2481 2064 2511
roadstress 2123 1895 2140 1975
roadstress 2068 1888 2222 1900
roadstress 1899 1840 2040 1959
roadstress 2030 1895 2068 2035
roadstress 2034 1793 2074 1884
roadstress 1850 1662 1891 1795
roadstress 1908 1676 1999 1748
roadstress 2200 1515 2321 1606
roadstress 2071 1527 2248 1610
roadstress 2125 1166 2411 1370
roadstress 1986 1303 2072 1516
roadstress 1999 1408 2188 1536
roadstress 2158 1453 2235 1495
roadstress 2040 1269 2304 1509
roadstress 2128 1313 2188 1350
roadstress 2295 1278 2492 1531
roadstress 2313 1117 2509 1264
roadstress 2231 1139 2341 1248
roadstress 2136 934 2328 1115
roadstress 2398 819 2623 1023
roadstress 2443 973 2472 1028
roadstress 2214 875 2394 1010
roadstress 2375 604 2639 835
roadstress 2683 829 2780 914
roadstress 2588 645 2726 759
roadstress 2743 728 2867 853
roadstress 2784 609 2916 745
roadstress 2875 522 3011 745
roadstress 2884 243 3131 522
roadstress 2501 434 2724 642
roadstress 2654 232 2976 416
roadstress 2934 457 3008 479
roadstress 2985 431 3130 512
roadstress 2639 288 2767 441
roadstress 2767 25 3040 331
roadstress 3078 206 3117 238
roadstress 2982 144 3083 167
roadstress 3167 166 3293 229
roadstress 3116 142 3181 199
roadstress 3188 70 3274 158
roadstress 1212 2647 1220 2680
roadstress 1878 2660 1895 2716
